Welcome to the CBC MILP Solver 
Version: Trunk
Build Date: Apr 16 2020 

Starting solution of the Linear programming relaxation problem using Primal Simplex

Using Python-MIP package version 1.8.1
Machines:  4 Jobs:  4
Order: 
Job  0 : machine 0 ( 10 ) machine 3 ( 1 ) machine 2 ( 6 ) machine 1 ( 7 ) 
Job  1 : machine 0 ( 1 ) machine 3 ( 7 ) machine 1 ( 5 ) machine 2 ( 8 ) 
Job  2 : machine 3 ( 9 ) machine 2 ( 3 ) machine 1 ( 7 ) machine 0 ( 1 ) 
Job  3 : machine 1 ( 7 ) machine 3 ( 3 ) machine 0 ( 9 ) machine 2 ( 10 ) 
K:  44
Job  0 , e: machine  0 ( 0 ) machine  1 ( 17 ) machine  2 ( 11 ) machine  3 ( 10 ) 
Job  1 , e: machine  0 ( 0 ) machine  1 ( 8 ) machine  2 ( 13 ) machine  3 ( 1 ) 
Job  2 , e: machine  0 ( 19 ) machine  1 ( 12 ) machine  2 ( 9 ) machine  3 ( 0 ) 
Job  3 , e: machine  0 ( 10 ) machine  1 ( 0 ) machine  2 ( 19 ) machine  3 ( 7 ) 
Job  0 , f: machine  0 ( 14 ) machine  1 ( 0 ) machine  2 ( 7 ) machine  3 ( 13 ) 
Job  1 , f: machine  0 ( 20 ) machine  1 ( 8 ) machine  2 ( 0 ) machine  3 ( 13 ) 
Job  2 , f: machine  0 ( 0 ) machine  1 ( 1 ) machine  2 ( 8 ) machine  3 ( 11 ) 
Job  3 , f: machine  0 ( 10 ) machine  1 ( 22 ) machine  2 ( 0 ) machine  3 ( 19 ) 
EST and LST:
Job: 0 Machine: 0 EST: 0 LST: 20
Job: 0 Machine: 1 EST: 17 LST: 37
Job: 0 Machine: 2 EST: 11 LST: 31
Job: 0 Machine: 3 EST: 10 LST: 30
Job: 1 Machine: 0 EST: 0 LST: 23
Job: 1 Machine: 1 EST: 8 LST: 31
Job: 1 Machine: 2 EST: 13 LST: 36
Job: 1 Machine: 3 EST: 1 LST: 24
Job: 2 Machine: 0 EST: 19 LST: 43
Job: 2 Machine: 1 EST: 12 LST: 36
Job: 2 Machine: 2 EST: 9 LST: 33
Job: 2 Machine: 3 EST: 0 LST: 24
Job: 3 Machine: 0 EST: 10 LST: 25
Job: 3 Machine: 1 EST: 0 LST: 15
Job: 3 Machine: 2 EST: 19 LST: 34
Job: 3 Machine: 3 EST: 7 LST: 22
Order:
Job: 0 Machine: 0 = 0 
Job: 0 Machine: 1 = 3 
Job: 0 Machine: 2 = 2 
Job: 0 Machine: 3 = 1 
Job: 1 Machine: 0 = 0 
Job: 1 Machine: 1 = 2 
Job: 1 Machine: 2 = 3 
Job: 1 Machine: 3 = 1 
Job: 2 Machine: 0 = 3 
Job: 2 Machine: 1 = 2 
Job: 2 Machine: 2 = 1 
Job: 2 Machine: 3 = 0 
Job: 3 Machine: 0 = 2 
Job: 3 Machine: 1 = 0 
Job: 3 Machine: 2 = 3 
Job: 3 Machine: 3 = 1 
Distances:
Job 0, Machine 0 -> Machine 3: distance 10
Job 0, Machine 0 -> Machine 2: distance 11
Job 0, Machine 0 -> Machine 1: distance 17
Job 0, Machine 3 -> Machine 2: distance 1
Job 0, Machine 3 -> Machine 1: distance 7
Job 0, Machine 2 -> Machine 1: distance 6
Job 1, Machine 0 -> Machine 3: distance 1
Job 1, Machine 0 -> Machine 1: distance 8
Job 1, Machine 0 -> Machine 2: distance 13
Job 1, Machine 3 -> Machine 1: distance 7
Job 1, Machine 3 -> Machine 2: distance 12
Job 1, Machine 1 -> Machine 2: distance 5
Job 2, Machine 3 -> Machine 2: distance 9
Job 2, Machine 3 -> Machine 1: distance 12
Job 2, Machine 3 -> Machine 0: distance 19
Job 2, Machine 2 -> Machine 1: distance 3
Job 2, Machine 2 -> Machine 0: distance 10
Job 2, Machine 1 -> Machine 0: distance 7
Job 3, Machine 1 -> Machine 3: distance 7
Job 3, Machine 1 -> Machine 0: distance 10
Job 3, Machine 1 -> Machine 2: distance 19
Job 3, Machine 3 -> Machine 0: distance 3
Job 3, Machine 3 -> Machine 2: distance 12
Job 3, Machine 0 -> Machine 2: distance 9
McCormic linearization
19.0 13.0 7
14.0 13.0 7
19.0 19.0 10
10.0 7.0 7
7.0 1.0 9
[(0, 1), (1, 2), (3, 2), (0, 0), (2, 1), (1, 0), (0, 3)]
obj:  0.6000000000000001
solutions:  1
+ x(0,0) + 0.1x(1,0) 
C:  29.0
x(0,0) = 0.73	 x(0,1) = 19.06	 x(0,2) = 11.73	 x(0,3) = 10.73	 
x(1,0) = 2.73	 x(1,1) = 10.73	 x(1,2) = 20.27	 x(1,3) = 3.73	 
x(2,0) = 24.24	 x(2,1) = 17.24	 x(2,2) = 14.24	 x(2,3) = 5.24	 
x(3,0) = 10.00	 x(3,1) = 0.00	 x(3,2) = 19.00	 x(3,3) = 7.00	 
y(0,1,0) = 0.12	 y(1,0,0) = 0.88	 
y(0,2,0) = 0.56	 y(2,0,0) = 0.44	 
y(0,3,0) = 0.96	 y(3,0,0) = 0.04	 
y(1,2,0) = 0.51	 y(2,1,0) = 0.49	 
y(1,3,0) = 0.74	 y(3,1,0) = 0.26	 
y(2,3,0) = 0.00	 y(3,2,0) = 1.00	 
y(0,1,1) = 0.00	 y(1,0,1) = 1.00	 
y(0,2,1) = 0.20	 y(2,0,1) = 0.80	 
y(0,3,1) = 0.00	 y(3,0,1) = 1.00	 
y(1,2,1) = 0.39	 y(2,1,1) = 0.61	 
y(1,3,1) = 0.16	 y(3,1,1) = 0.84	 
y(2,3,1) = 0.00	 y(3,2,1) = 1.00	 
y(0,1,2) = 0.76	 y(1,0,2) = 0.24	 
y(0,2,2) = 0.46	 y(2,0,2) = 0.54	 
y(0,3,2) = 0.93	 y(3,0,2) = 0.07	 
y(1,2,2) = 0.00	 y(2,1,2) = 1.00	 
y(1,3,2) = 0.28	 y(3,1,2) = 0.72	 
y(2,3,2) = 0.92	 y(3,2,2) = 0.08	 
y(0,1,3) = 0.00	 y(1,0,3) = 1.00	 
y(0,2,3) = 0.15	 y(2,0,3) = 0.85	 
y(0,3,3) = 0.04	 y(3,0,3) = 0.96	 
y(1,2,3) = 0.33	 y(2,1,3) = 0.67	 
y(1,3,3) = 0.26	 y(3,1,3) = 0.74	 
y(2,3,3) = 0.19	 y(3,2,3) = 0.81	 
19.059504933051446 17.23890063424947 7
20.27145415573211 19.000000000000004 10
10.727272727272727 5.238900634249468 9
obj:  0.9174311926605505
solutions:  1
+ 0.09174311926605504x(0,0) + 0.08256880733944955x(3,0) + 0.009174311926605498x(1,0) 
[(0, 1), (0, 0), (3, 0), (2, 1), (2, 2), (1, 0), (0, 2)]
cliques:  1 mip: 56
C:  29.0
x(0,0) = 1.78	 x(0,1) = 18.78	 x(0,2) = 12.78	 x(0,3) = 11.78	 
x(1,0) = 1.24	 x(1,1) = 9.24	 x(1,2) = 21.00	 x(1,3) = 2.24	 
x(2,0) = 19.00	 x(2,1) = 12.00	 x(2,2) = 9.00	 x(2,3) = 0.00	 
x(3,0) = 10.00	 x(3,1) = 0.00	 x(3,2) = 19.00	 x(3,3) = 7.00	 
y(0,1,0) = 0.02	 y(1,0,0) = 0.98	 
y(0,2,0) = 0.61	 y(2,0,0) = 0.39	 
y(0,3,0) = 0.91	 y(3,0,0) = 0.09	 
y(1,2,0) = 0.84	 y(2,1,0) = 0.16	 
y(1,3,0) = 0.68	 y(3,1,0) = 0.32	 
y(2,3,0) = 0.00	 y(3,2,0) = 1.00	 
y(0,1,1) = 0.00	 y(1,0,1) = 1.00	 
y(0,2,1) = 0.01	 y(2,0,1) = 0.99	 
y(0,3,1) = 0.00	 y(3,0,1) = 1.00	 
y(1,2,1) = 0.61	 y(2,1,1) = 0.39	 
y(1,3,1) = 0.09	 y(3,1,1) = 0.91	 
y(2,3,1) = 0.00	 y(3,2,1) = 1.00	 
y(0,1,2) = 0.68	 y(1,0,2) = 0.32	 
y(0,2,2) = 0.06	 y(2,0,2) = 0.94	 
y(0,3,2) = 0.79	 y(3,0,2) = 0.21	 
y(1,2,2) = 0.00	 y(2,1,2) = 1.00	 
y(1,3,2) = 0.26	 y(3,1,2) = 0.74	 
y(2,3,2) = 0.68	 y(3,2,2) = 0.32	 
y(0,1,3) = 0.18	 y(1,0,3) = 0.82	 
y(0,2,3) = 0.13	 y(2,0,3) = 0.87	 
y(0,3,3) = 0.09	 y(3,0,3) = 0.91	 
y(1,2,3) = 0.21	 y(2,1,3) = 0.79	 
y(1,3,3) = 0.32	 y(3,1,3) = 0.68	 
y(2,3,3) = 0.40	 y(3,2,3) = 0.60	 
1.775872671177449 1.2412732882255109 1
18.999999999999996 10.0 9
18.77587267117745 11.999999999999998 7
20.999999999999996 19.000000000000004 10
2.2412732882255106 0.0 9
obj:  0.9196841505497636
solutions:  1
+ 0.005025125628140698x(0,0) + 0.09045226130653265x(3,0) + 0.005025125628140711x(1,0) 
[(0, 1), (1, 2), (3, 2), (0, 0), (3, 0), (2, 1), (1, 0)]
cliques:  1 mip: 49
C:  30.126338329764458
x(0,0) = 6.13	 x(0,1) = 23.13	 x(0,2) = 17.13	 x(0,3) = 16.13	 
x(1,0) = 0.00	 x(1,1) = 8.00	 x(1,2) = 13.00	 x(1,3) = 1.00	 
x(2,0) = 26.08	 x(2,1) = 19.08	 x(2,2) = 16.08	 x(2,3) = 7.08	 
x(3,0) = 10.72	 x(3,1) = 0.00	 x(3,2) = 19.72	 x(3,3) = 7.00	 
y(0,1,0) = 0.00	 y(1,0,0) = 1.00	 
y(0,2,0) = 0.63	 y(2,0,0) = 0.37	 
y(0,3,0) = 0.73	 y(3,0,0) = 0.27	 
y(1,2,0) = 0.89	 y(2,1,0) = 0.11	 
y(1,3,0) = 0.58	 y(3,1,0) = 0.42	 
y(2,3,0) = 0.27	 y(3,2,0) = 0.73	 
y(0,1,1) = 0.00	 y(1,0,1) = 1.00	 
y(0,2,1) = 0.11	 y(2,0,1) = 0.89	 
y(0,3,1) = 0.00	 y(3,0,1) = 1.00	 
y(1,2,1) = 0.74	 y(2,1,1) = 0.26	 
y(1,3,1) = 0.04	 y(3,1,1) = 0.96	 
y(2,3,1) = 0.00	 y(3,2,1) = 1.00	 
y(0,1,2) = 0.28	 y(1,0,2) = 0.72	 
y(0,2,2) = 0.14	 y(2,0,2) = 0.86	 
y(0,3,2) = 0.81	 y(3,0,2) = 0.19	 
y(1,2,2) = 0.26	 y(2,1,2) = 0.74	 
y(1,3,2) = 0.95	 y(3,1,2) = 0.05	 
y(2,3,2) = 0.97	 y(3,2,2) = 0.03	 
y(0,1,3) = 0.00	 y(1,0,3) = 1.00	 
y(0,2,3) = 0.00	 y(2,0,3) = 1.00	 
y(0,3,3) = 0.31	 y(3,0,3) = 0.69	 
y(1,2,3) = 0.47	 y(2,1,3) = 0.53	 
y(1,3,3) = 0.37	 y(3,1,3) = 0.63	 
y(2,3,3) = 0.15	 y(3,2,3) = 0.85	 
23.12633832976446 19.080459770114963 7
17.12633832976446 13.0 8
17.12633832976446 16.08045977011496 3
7.080459770114961 7.0 3
obj:  0.92759510896756
solutions:  1
+ 0.04672897196261683x(1,2) + 0.018691588785046724x(0,2) 
[(0, 1), (1, 2), (0, 0), (3, 0), (2, 1), (2, 2), (0, 2)]
cliques:  1 mip: 61
C:  31.341157994190905
x(0,0) = 2.45	 x(0,1) = 23.33	 x(0,2) = 17.33	 x(0,3) = 12.45	 
x(1,0) = 0.00	 x(1,1) = 8.00	 x(1,2) = 14.47	 x(1,3) = 1.00	 
x(2,0) = 24.13	 x(2,1) = 17.13	 x(2,2) = 13.30	 x(2,3) = 2.22	 
x(3,0) = 10.92	 x(3,1) = 0.00	 x(3,2) = 20.81	 x(3,3) = 7.92	 
y(0,1,0) = 0.00	 y(1,0,0) = 1.00	 
y(0,2,0) = 0.65	 y(2,0,0) = 0.35	 
y(0,3,0) = 0.92	 y(3,0,0) = 0.08	 
y(1,2,0) = 0.87	 y(2,1,0) = 0.13	 
y(1,3,0) = 0.92	 y(3,1,0) = 0.08	 
y(2,3,0) = 0.18	 y(3,2,0) = 0.82	 
y(0,1,1) = 0.04	 y(1,0,1) = 0.96	 
y(0,2,1) = 0.03	 y(2,0,1) = 0.97	 
y(0,3,1) = 0.00	 y(3,0,1) = 1.00	 
y(1,2,1) = 0.69	 y(2,1,1) = 0.31	 
y(1,3,1) = 0.04	 y(3,1,1) = 0.96	 
y(2,3,1) = 0.00	 y(3,2,1) = 1.00	 
y(0,1,2) = 0.20	 y(1,0,2) = 0.80	 
y(0,2,2) = 0.00	 y(2,0,2) = 1.00	 
y(0,3,2) = 0.41	 y(3,0,2) = 0.59	 
y(1,2,2) = 0.08	 y(2,1,2) = 0.92	 
y(1,3,2) = 0.93	 y(3,1,2) = 0.07	 
y(2,3,2) = 0.80	 y(3,2,2) = 0.20	 
y(0,1,3) = 0.00	 y(1,0,3) = 1.00	 
y(0,2,3) = 0.06	 y(2,0,3) = 0.94	 
y(0,3,3) = 0.07	 y(3,0,3) = 0.93	 
y(1,2,3) = 0.32	 y(2,1,3) = 0.68	 
y(1,3,3) = 0.84	 y(3,1,3) = 0.16	 
y(2,3,3) = 0.35	 y(3,2,3) = 0.65	 
23.33171610504091 17.13226405725066 7
17.33171610504091 14.467313557983639 8
14.467313557983639 13.301797525186476 3
obj:  0.903379729490846
solutions:  1
+ 0.013586956521739125x(1,2) + 0.027173913043478267x(3,2) + 0.008152173913043476x(0,2) 
[(0, 1), (1, 2), (3, 2), (0, 0), (3, 0), (2, 1), (0, 2)]
cliques:  1 mip: 91
C:  33.47720317409138
x(0,0) = 5.43	 x(0,1) = 24.03	 x(0,2) = 18.03	 x(0,3) = 15.43	 
x(1,0) = 2.87	 x(1,1) = 11.75	 x(1,2) = 21.42	 x(1,3) = 3.87	 
x(2,0) = 26.76	 x(2,1) = 19.76	 x(2,2) = 16.76	 x(2,3) = 5.75	 
x(3,0) = 11.68	 x(3,1) = 0.00	 x(3,2) = 20.68	 x(3,3) = 8.68	 
y(0,1,0) = 0.00	 y(1,0,0) = 1.00	 
y(0,2,0) = 0.66	 y(2,0,0) = 0.34	 
y(0,3,0) = 0.81	 y(3,0,0) = 0.19	 
y(1,2,0) = 0.88	 y(2,1,0) = 0.12	 
y(1,3,0) = 0.57	 y(3,1,0) = 0.43	 
y(2,3,0) = 0.25	 y(3,2,0) = 0.75	 
y(0,1,1) = 0.00	 y(1,0,1) = 1.00	 
y(0,2,1) = 0.10	 y(2,0,1) = 0.90	 
y(0,3,1) = 0.00	 y(3,0,1) = 1.00	 
y(1,2,1) = 0.70	 y(2,1,1) = 0.30	 
y(1,3,1) = 0.20	 y(3,1,1) = 0.80	 
y(2,3,1) = 0.00	 y(3,2,1) = 1.00	 
y(0,1,2) = 0.48	 y(1,0,2) = 0.52	 
y(0,2,2) = 0.14	 y(2,0,2) = 0.86	 
y(0,3,2) = 0.81	 y(3,0,2) = 0.19	 
y(1,2,2) = 0.07	 y(2,1,2) = 0.93	 
y(1,3,2) = 0.65	 y(3,1,2) = 0.35	 
y(2,3,2) = 0.96	 y(3,2,2) = 0.04	 
y(0,1,3) = 0.00	 y(1,0,3) = 1.00	 
y(0,2,3) = 0.03	 y(2,0,3) = 0.97	 
y(0,3,3) = 0.17	 y(3,0,3) = 0.83	 
y(1,2,3) = 0.34	 y(2,1,3) = 0.66	 
y(1,3,3) = 0.33	 y(3,1,3) = 0.67	 
y(2,3,3) = 0.24	 y(3,2,3) = 0.76	 
24.031364084708766 19.760219601795395 7
18.031364084708766 16.760219601795395 3
21.41992763139829 20.68062695888823 10
obj:  1.1680626958888227
erro
[(0, 1), (1, 2), (0, 0), (3, 0), (2, 1), (2, 2), (0, 2)]
cliques:  0 mip: 89
C:  33.99999680930557
x(0,0) = 7.72	 x(0,1) = 24.72	 x(0,2) = 18.72	 x(0,3) = 17.72	 
x(1,0) = 0.00	 x(1,1) = 8.50	 x(1,2) = 17.27	 x(1,3) = 1.00	 
x(2,0) = 27.32	 x(2,1) = 20.32	 x(2,2) = 17.32	 x(2,3) = 6.35	 
x(3,0) = 10.95	 x(3,1) = 0.95	 x(3,2) = 23.40	 x(3,3) = 7.95	 
y(0,1,0) = 0.00	 y(1,0,0) = 1.00	 
y(0,2,0) = 0.53	 y(2,0,0) = 0.47	 
y(0,3,0) = 0.36	 y(3,0,0) = 0.64	 
y(1,2,0) = 0.85	 y(2,1,0) = 0.15	 
y(1,3,0) = 0.77	 y(3,1,0) = 0.23	 
y(2,3,0) = 0.31	 y(3,2,0) = 0.69	 
y(0,1,1) = 0.00	 y(1,0,1) = 1.00	 
y(0,2,1) = 0.10	 y(2,0,1) = 0.90	 
y(0,3,1) = 0.00	 y(3,0,1) = 1.00	 
y(1,2,1) = 0.63	 y(2,1,1) = 0.37	 
y(1,3,1) = 0.02	 y(3,1,1) = 0.98	 
y(2,3,1) = 0.00	 y(3,2,1) = 1.00	 
y(0,1,2) = 0.20	 y(1,0,2) = 0.80	 
y(0,2,2) = 0.15	 y(2,0,2) = 0.85	 
y(0,3,2) = 0.93	 y(3,0,2) = 0.07	 
y(1,2,2) = 0.13	 y(2,1,2) = 0.87	 
y(1,3,2) = 0.93	 y(3,1,2) = 0.07	 
y(2,3,2) = 0.86	 y(3,2,2) = 0.14	 
y(0,1,3) = 0.00	 y(1,0,3) = 1.00	 
y(0,2,3) = 0.11	 y(2,0,3) = 0.89	 
y(0,3,3) = 0.22	 y(3,0,3) = 0.78	 
y(1,2,3) = 0.45	 y(2,1,3) = 0.55	 
y(1,3,3) = 0.53	 y(3,1,3) = 0.47	 
y(2,3,3) = 0.18	 y(3,2,3) = 0.82	 
24.723373372428775 20.31833298808946 7
18.72337337242877 17.271300679428805 8
18.72337337242877 17.318332988089463 3
obj:  1.0950270879500215
erro
[(0, 1), (1, 2), (0, 0), (3, 0), (2, 1), (2, 2), (0, 2)]
cliques:  0 mip: 81
C:  33.99999680930559
x(0,0) = 2.13	 x(0,1) = 22.68	 x(0,2) = 15.71	 x(0,3) = 14.71	 
x(1,0) = 0.00	 x(1,1) = 8.44	 x(1,2) = 18.91	 x(1,3) = 1.00	 
x(2,0) = 26.70	 x(2,1) = 19.70	 x(2,2) = 16.70	 x(2,3) = 5.71	 
x(3,0) = 10.94	 x(3,1) = 0.94	 x(3,2) = 22.63	 x(3,3) = 7.94	 
y(0,1,0) = 0.00	 y(1,0,0) = 1.00	 
y(0,2,0) = 0.80	 y(2,0,0) = 0.20	 
y(0,3,0) = 0.94	 y(3,0,0) = 0.06	 
y(1,2,0) = 0.85	 y(2,1,0) = 0.15	 
y(1,3,0) = 0.95	 y(3,1,0) = 0.05	 
y(2,3,0) = 0.28	 y(3,2,0) = 0.72	 
y(0,1,1) = 0.00	 y(1,0,1) = 1.00	 
y(0,2,1) = 0.15	 y(2,0,1) = 0.85	 
y(0,3,1) = 0.00	 y(3,0,1) = 1.00	 
y(1,2,1) = 0.64	 y(2,1,1) = 0.36	 
y(1,3,1) = 0.02	 y(3,1,1) = 0.98	 
y(2,3,1) = 0.00	 y(3,2,1) = 1.00	 
y(0,1,2) = 0.34	 y(1,0,2) = 0.66	 
y(0,2,2) = 0.21	 y(2,0,2) = 0.79	 
y(0,3,2) = 1.00	 y(3,0,2) = 0.00	 
y(1,2,2) = 0.03	 y(2,1,2) = 0.97	 
y(1,3,2) = 0.83	 y(3,1,2) = 0.17	 
y(2,3,2) = 0.87	 y(3,2,2) = 0.13	 
y(0,1,3) = 0.00	 y(1,0,3) = 1.00	 
y(0,2,3) = 0.00	 y(2,0,3) = 1.00	 
y(0,3,3) = 0.37	 y(3,0,3) = 0.63	 
y(1,2,3) = 0.43	 y(2,1,3) = 0.57	 
y(1,3,3) = 0.46	 y(3,1,3) = 0.54	 
y(2,3,3) = 0.21	 y(3,2,3) = 0.79	 
22.68432545130905 19.701991967107404 7
18.914687414870684 16.701991967107404 3
14.714261972534292 5.7142619725342945 9
obj:  1.0936966517936646
erro
[(0, 1), (1, 2), (0, 0), (3, 0), (2, 1), (2, 2), (0, 2)]
cliques:  0 mip: 85
C:  33.99999680930559
x(0,0) = 1.53	 x(0,1) = 22.64	 x(0,2) = 16.64	 x(0,3) = 13.01	 
x(1,0) = 0.00	 x(1,1) = 10.62	 x(1,2) = 15.62	 x(1,3) = 1.00	 
x(2,0) = 27.41	 x(2,1) = 20.41	 x(2,2) = 17.41	 x(2,3) = 7.56	 
x(3,0) = 11.53	 x(3,1) = 1.53	 x(3,2) = 24.00	 x(3,3) = 8.53	 
y(0,1,0) = 0.00	 y(1,0,0) = 1.00	 
y(0,2,0) = 0.80	 y(2,0,0) = 0.20	 
y(0,3,0) = 1.00	 y(3,0,0) = 0.00	 
y(1,2,0) = 0.92	 y(2,1,0) = 0.08	 
y(1,3,0) = 1.00	 y(3,1,0) = 0.00	 
y(2,3,0) = 0.29	 y(3,2,0) = 0.71	 
y(0,1,1) = 0.00	 y(1,0,1) = 1.00	 
y(0,2,1) = 0.18	 y(2,0,1) = 0.82	 
y(0,3,1) = 0.00	 y(3,0,1) = 1.00	 
y(1,2,1) = 0.79	 y(2,1,1) = 0.21	 
y(1,3,1) = 0.09	 y(3,1,1) = 0.91	 
y(2,3,1) = 0.00	 y(3,2,1) = 1.00	 
y(0,1,2) = 0.62	 y(1,0,2) = 0.38	 
y(0,2,2) = 0.20	 y(2,0,2) = 0.80	 
y(0,3,2) = 1.00	 y(3,0,2) = 0.00	 
y(1,2,2) = 0.21	 y(2,1,2) = 0.79	 
y(1,3,2) = 1.00	 y(3,1,2) = 0.00	 
y(2,3,2) = 0.84	 y(3,2,2) = 0.16	 
y(0,1,3) = 0.00	 y(1,0,3) = 1.00	 
y(0,2,3) = 0.15	 y(2,0,3) = 0.85	 
y(0,3,3) = 0.14	 y(3,0,3) = 0.86	 
y(1,2,3) = 0.81	 y(2,1,3) = 0.19	 
y(1,3,3) = 0.71	 y(3,1,3) = 0.29	 
y(2,3,3) = 0.16	 y(3,2,3) = 0.84	 
22.640192567875374 20.410470941256715 7
16.640192567875378 15.615890840663573 8
13.005512256741453 7.564442846449935 9
obj:  1.0396004023010272
erro
[(0, 1), (1, 2), (2, 1), (2, 3), (2, 2), (0, 3), (0, 2)]
cliques:  0 mip: 74
C:  33.9999968093056
x(0,0) = 1.00	 x(0,1) = 22.00	 x(0,2) = 16.00	 x(0,3) = 11.47	 
x(1,0) = 0.00	 x(1,1) = 11.00	 x(1,2) = 16.00	 x(1,3) = 3.36	 
x(2,0) = 29.14	 x(2,1) = 22.14	 x(2,2) = 16.05	 x(2,3) = 5.70	 
x(3,0) = 11.00	 x(3,1) = 1.00	 x(3,2) = 24.00	 x(3,3) = 8.00	 
y(0,1,0) = 0.00	 y(1,0,0) = 1.00	 
y(0,2,0) = 0.78	 y(2,0,0) = 0.22	 
y(0,3,0) = 1.00	 y(3,0,0) = 0.00	 
y(1,2,0) = 0.89	 y(2,1,0) = 0.11	 
y(1,3,0) = 1.00	 y(3,1,0) = 0.00	 
y(2,3,0) = 0.38	 y(3,2,0) = 0.62	 
y(0,1,1) = 0.00	 y(1,0,1) = 1.00	 
y(0,2,1) = 0.27	 y(2,0,1) = 0.73	 
y(0,3,1) = 0.00	 y(3,0,1) = 1.00	 
y(1,2,1) = 0.73	 y(2,1,1) = 0.27	 
y(1,3,1) = 0.13	 y(3,1,1) = 0.87	 
y(2,3,1) = 0.00	 y(3,2,1) = 1.00	 
y(0,1,2) = 0.72	 y(1,0,2) = 0.28	 
y(0,2,2) = 0.19	 y(2,0,2) = 0.81	 
y(0,3,2) = 1.00	 y(3,0,2) = 0.00	 
y(1,2,2) = 0.13	 y(2,1,2) = 0.87	 
y(1,3,2) = 1.00	 y(3,1,2) = 0.00	 
y(2,3,2) = 0.77	 y(3,2,2) = 0.23	 
y(0,1,3) = 0.18	 y(1,0,3) = 0.82	 
y(0,2,3) = 0.14	 y(2,0,3) = 0.86	 
y(0,3,3) = 0.04	 y(3,0,3) = 0.96	 
y(1,2,3) = 0.57	 y(2,1,3) = 0.43	 
y(1,3,3) = 0.87	 y(3,1,3) = 0.13	 
y(2,3,3) = 0.21	 y(3,2,3) = 0.79	 
0.9999999999999999 0.0 1
16.000014769034394 16.00000889056858 8
11.471719734442337 5.703022491067595 9
obj:  1.000000000000004
erro
[(0, 1), (1, 2), (0, 0), (2, 1), (2, 2), (1, 0), (0, 2)]
cliques:  0 mip: 53
C:  33.99999680930561
x(0,0) = 1.00	 x(0,1) = 22.00	 x(0,2) = 16.00	 x(0,3) = 11.47	 
x(1,0) = 0.00	 x(1,1) = 11.00	 x(1,2) = 16.00	 x(1,3) = 3.36	 
x(2,0) = 24.45	 x(2,1) = 17.45	 x(2,2) = 13.00	 x(2,3) = 3.24	 
x(3,0) = 11.00	 x(3,1) = 1.00	 x(3,2) = 24.00	 x(3,3) = 8.00	 
y(0,1,0) = 0.00	 y(1,0,0) = 1.00	 
y(0,2,0) = 0.68	 y(2,0,0) = 0.32	 
y(0,3,0) = 1.00	 y(3,0,0) = 0.00	 
y(1,2,0) = 0.75	 y(2,1,0) = 0.25	 
y(1,3,0) = 1.00	 y(3,1,0) = 0.00	 
y(2,3,0) = 0.00	 y(3,2,0) = 1.00	 
y(0,1,1) = 0.00	 y(1,0,1) = 1.00	 
y(0,2,1) = 0.09	 y(2,0,1) = 0.91	 
y(0,3,1) = 0.00	 y(3,0,1) = 1.00	 
y(1,2,1) = 0.38	 y(2,1,1) = 0.62	 
y(1,3,1) = 0.12	 y(3,1,1) = 0.88	 
y(2,3,1) = 0.00	 y(3,2,1) = 1.00	 
y(0,1,2) = 0.72	 y(1,0,2) = 0.28	 
y(0,2,2) = 0.15	 y(2,0,2) = 0.85	 
y(0,3,2) = 0.99	 y(3,0,2) = 0.01	 
y(1,2,2) = 0.00	 y(2,1,2) = 1.00	 
y(1,3,2) = 1.00	 y(3,1,2) = 0.00	 
y(2,3,2) = 0.64	 y(3,2,2) = 0.36	 
y(0,1,3) = 0.18	 y(1,0,3) = 0.82	 
y(0,2,3) = 0.03	 y(2,0,3) = 0.97	 
y(0,3,3) = 0.04	 y(3,0,3) = 0.96	 
y(1,2,3) = 0.57	 y(2,1,3) = 0.43	 
y(1,3,3) = 0.87	 y(3,1,3) = 0.13	 
y(2,3,3) = 0.55	 y(3,2,3) = 0.45	 
1.00000000000002 2.0139205252850574e-14 1
22.000015953471955 17.454545454545457 7
16.00001595347196 15.99999680930561 8
15.99999680930561 12.999996809305612 3
11.471721542220779 3.2426143061823463 9
3.3611963511353067 3.2426143061823463 9
obj:  1.00000000000002
erro
[(0, 1), (1, 2), (0, 0), (3, 0), (2, 1), (1, 0), (0, 2)]
cliques:  0 mip: 60
C:  33.999996809305586
x(0,0) = 1.00	 x(0,1) = 22.00	 x(0,2) = 16.00	 x(0,3) = 12.08	 
x(1,0) = 0.00	 x(1,1) = 8.14	 x(1,2) = 16.00	 x(1,3) = 1.14	 
x(2,0) = 24.22	 x(2,1) = 17.22	 x(2,2) = 12.91	 x(2,3) = 3.46	 
x(3,0) = 11.00	 x(3,1) = 0.00	 x(3,2) = 24.00	 x(3,3) = 7.00	 
y(0,1,0) = 0.00	 y(1,0,0) = 1.00	 
y(0,2,0) = 0.68	 y(2,0,0) = 0.32	 
y(0,3,0) = 1.00	 y(3,0,0) = 0.00	 
y(1,2,0) = 0.78	 y(2,1,0) = 0.22	 
y(1,3,0) = 1.00	 y(3,1,0) = 0.00	 
y(2,3,0) = 0.00	 y(3,2,0) = 1.00	 
y(0,1,1) = 0.00	 y(1,0,1) = 1.00	 
y(0,2,1) = 0.09	 y(2,0,1) = 0.91	 
y(0,3,1) = 0.00	 y(3,0,1) = 1.00	 
y(1,2,1) = 0.46	 y(2,1,1) = 0.54	 
y(1,3,1) = 0.05	 y(3,1,1) = 0.95	 
y(2,3,1) = 0.00	 y(3,2,1) = 1.00	 
y(0,1,2) = 0.75	 y(1,0,2) = 0.25	 
y(0,2,2) = 0.13	 y(2,0,2) = 0.87	 
y(0,3,2) = 0.97	 y(3,0,2) = 0.03	 
y(1,2,2) = 0.51	 y(2,1,2) = 0.49	 
y(1,3,2) = 1.00	 y(3,1,2) = 0.00	 
y(2,3,2) = 0.60	 y(3,2,2) = 0.40	 
y(0,1,3) = 0.31	 y(1,0,3) = 0.69	 
y(0,2,3) = 0.02	 y(2,0,3) = 0.98	 
y(0,3,3) = 0.20	 y(3,0,3) = 0.80	 
y(1,2,3) = 0.78	 y(2,1,3) = 0.22	 
y(1,3,3) = 0.89	 y(3,1,3) = 0.11	 
y(2,3,3) = 0.48	 y(3,2,3) = 0.52	 
0.9999999999999999 0.0 1
22.000014217272906 17.21835198291388 7
12.08040217646405 3.45849496646319 9
obj:  0.9999999999999999
erro
[(0, 1), (1, 2), (3, 2), (0, 0), (2, 1), (1, 0), (0, 2)]
cliques:  0 mip: 67
C:  34.07862416779132
x(0,0) = 0.89	 x(0,1) = 25.41	 x(0,2) = 18.91	 x(0,3) = 17.91	 
x(1,0) = 1.10	 x(1,1) = 9.10	 x(1,2) = 14.10	 x(1,3) = 2.10	 
x(2,0) = 27.69	 x(2,1) = 20.69	 x(2,2) = 16.02	 x(2,3) = 7.02	 
x(3,0) = 15.08	 x(3,1) = 2.10	 x(3,2) = 24.08	 x(3,3) = 12.08	 
y(0,1,0) = 0.05	 y(1,0,0) = 0.95	 
y(0,2,0) = 0.85	 y(2,0,0) = 0.15	 
y(0,3,0) = 0.96	 y(3,0,0) = 0.04	 
y(1,2,0) = 0.85	 y(2,1,0) = 0.15	 
y(1,3,0) = 1.00	 y(3,1,0) = 0.00	 
y(2,3,0) = -0.00	 y(3,2,0) = 1.00	 
y(0,1,1) = 0.00	 y(1,0,1) = 1.00	 
y(0,2,1) = 0.09	 y(2,0,1) = 0.91	 
y(0,3,1) = 0.00	 y(3,0,1) = 1.00	 
y(1,2,1) = 0.53	 y(2,1,1) = 0.47	 
y(1,3,1) = 0.00	 y(3,1,1) = 1.00	 
y(2,3,1) = 0.00	 y(3,2,1) = 1.00	 
y(0,1,2) = 0.19	 y(1,0,2) = 0.81	 
y(0,2,2) = 0.10	 y(2,0,2) = 0.90	 
y(0,3,2) = 0.95	 y(3,0,2) = 0.05	 
y(1,2,2) = 0.62	 y(2,1,2) = 0.38	 
y(1,3,2) = 1.00	 y(3,1,2) = -0.00	 
y(2,3,2) = 0.52	 y(3,2,2) = 0.48	 
y(0,1,3) = 0.42	 y(1,0,3) = 0.58	 
y(0,2,3) = 0.00	 y(2,0,3) = 1.00	 
y(0,3,3) = 0.25	 y(3,0,3) = 0.75	 
y(1,2,3) = 0.75	 y(2,1,3) = 0.25	 
y(1,3,3) = 0.96	 y(3,1,3) = 0.04	 
y(2,3,3) = 0.64	 y(3,2,3) = 0.36	 
25.405159986006765 20.691167706427407 7
18.90641199014026 14.098904470333197 8
18.90641199014026 16.015906474616823 3
obj:  0.9999999999999998
erro
[(0, 1), (1, 2), (0, 0), (2, 1), (2, 2), (1, 0), (0, 2)]
cliques:  0 mip: 37
C:  34.09854338136465
x(0,0) = 2.12	 x(0,1) = 25.76	 x(0,2) = 19.13	 x(0,3) = 18.13	 
x(1,0) = 1.12	 x(1,1) = 10.12	 x(1,2) = 15.12	 x(1,3) = 2.12	 
x(2,0) = 27.49	 x(2,1) = 20.49	 x(2,2) = 15.73	 x(2,3) = 6.73	 
x(3,0) = 14.86	 x(3,1) = 3.12	 x(3,2) = 23.86	 x(3,3) = 11.86	 
y(0,1,0) = 0.00	 y(1,0,0) = 1.00	 
y(0,2,0) = 0.78	 y(2,0,0) = 0.22	 
y(0,3,0) = 0.96	 y(3,0,0) = 0.04	 
y(1,2,0) = 0.83	 y(2,1,0) = 0.17	 
y(1,3,0) = 1.00	 y(3,1,0) = -0.00	 
y(2,3,0) = 0.00	 y(3,2,0) = 1.00	 
y(0,1,1) = 0.00	 y(1,0,1) = 1.00	 
y(0,2,1) = 0.07	 y(2,0,1) = 0.93	 
y(0,3,1) = 0.00	 y(3,0,1) = 1.00	 
y(1,2,1) = 0.50	 y(2,1,1) = 0.50	 
y(1,3,1) = 0.00	 y(3,1,1) = 1.00	 
y(2,3,1) = 0.00	 y(3,2,1) = 1.00	 
y(0,1,2) = 0.24	 y(1,0,2) = 0.76	 
y(0,2,2) = 0.08	 y(2,0,2) = 0.92	 
y(0,3,2) = 0.93	 y(3,0,2) = 0.07	 
y(1,2,2) = 0.59	 y(2,1,2) = 0.41	 
y(1,3,2) = 1.00	 y(3,1,2) = 0.00	 
y(2,3,2) = 0.52	 y(3,2,2) = 0.48	 
y(0,1,3) = 0.41	 y(1,0,3) = 0.59	 
y(0,2,3) = 0.00	 y(2,0,3) = 1.00	 
y(0,3,3) = 0.29	 y(3,0,3) = 0.71	 
y(1,2,3) = 0.70	 y(2,1,3) = 0.30	 
y(1,3,3) = 0.82	 y(3,1,3) = 0.18	 
y(2,3,3) = 0.64	 y(3,2,3) = 0.36	 
25.755020799460016 20.486858039069997 7
19.127861963184216 15.120843311763883 8
obj:  0.9724723714438465
solutions:  1
+ 0.022759601706970122x(1,2) + 0.017780938833570414x(3,2) + 0.01066856330014225x(0,2) 
[(0, 1), (1, 2), (3, 2), (1, 3), (2, 1), (2, 2), (0, 2)]
cliques:  1 mip: 32
C:  34.11923368940356
x(0,0) = 4.08	 x(0,1) = 25.99	 x(0,2) = 19.24	 x(0,3) = 18.24	 
x(1,0) = 3.08	 x(1,1) = 11.08	 x(1,2) = 16.08	 x(1,3) = 4.08	 
x(2,0) = 27.74	 x(2,1) = 20.74	 x(2,2) = 16.00	 x(2,3) = 7.00	 
x(3,0) = 15.12	 x(3,1) = 4.08	 x(3,2) = 24.12	 x(3,3) = 12.12	 
y(0,1,0) = 0.00	 y(1,0,0) = 1.00	 
y(0,2,0) = 0.69	 y(2,0,0) = 0.31	 
y(0,3,0) = 0.97	 y(3,0,0) = 0.03	 
y(1,2,0) = 0.83	 y(2,1,0) = 0.17	 
y(1,3,0) = 0.92	 y(3,1,0) = 0.08	 
y(2,3,0) = 0.00	 y(3,2,0) = 1.00	 
y(0,1,1) = 0.00	 y(1,0,1) = 1.00	 
y(0,2,1) = 0.07	 y(2,0,1) = 0.93	 
y(0,3,1) = 0.00	 y(3,0,1) = 1.00	 
y(1,2,1) = 0.48	 y(2,1,1) = 0.52	 
y(1,3,1) = 0.00	 y(3,1,1) = 1.00	 
y(2,3,1) = 0.00	 y(3,2,1) = 1.00	 
y(0,1,2) = 0.29	 y(1,0,2) = 0.71	 
y(0,2,2) = 0.09	 y(2,0,2) = 0.91	 
y(0,3,2) = 0.94	 y(3,0,2) = 0.06	 
y(1,2,2) = 0.57	 y(2,1,2) = 0.43	 
y(1,3,2) = 1.00	 y(3,1,2) = 0.00	 
y(2,3,2) = 0.52	 y(3,2,2) = 0.48	 
y(0,1,3) = 0.33	 y(1,0,3) = 0.67	 
y(0,2,3) = 0.00	 y(2,0,3) = 1.00	 
y(0,3,3) = 0.28	 y(3,0,3) = 0.72	 
y(1,2,3) = 0.56	 y(2,1,3) = 0.44	 
y(1,3,3) = 0.66	 y(3,1,3) = 0.34	 
y(2,3,3) = 0.64	 y(3,2,3) = 0.36	 
25.99245443440085 20.744068820010092 7
19.236122113038345 16.077416439666763 8
16.077416439666763 15.995058036370795 3
obj:  1.0
erro
[(0, 1), (1, 2), (3, 2), (1, 3), (2, 1), (2, 2), (0, 2)]
cliques:  0 mip: 88
C:  34.99999231820538
x(0,0) = 0.32	 x(0,1) = 28.00	 x(0,2) = 16.83	 x(0,3) = 15.83	 
x(1,0) = 9.32	 x(1,1) = 17.32	 x(1,2) = 24.37	 x(1,3) = 10.32	 
x(2,0) = 24.90	 x(2,1) = 17.90	 x(2,2) = 14.90	 x(2,3) = 5.90	 
x(3,0) = 10.72	 x(3,1) = 0.72	 x(3,2) = 21.53	 x(3,3) = 7.72	 
y(0,1,0) = 0.42	 y(1,0,0) = 0.58	 
y(0,2,0) = 0.96	 y(2,0,0) = 0.04	 
y(0,3,0) = 0.85	 y(3,0,0) = 0.15	 
y(1,2,0) = 0.73	 y(2,1,0) = 0.27	 
y(1,3,0) = 0.38	 y(3,1,0) = 0.62	 
y(2,3,0) = 0.00	 y(3,2,0) = 1.00	 
y(0,1,1) = 0.00	 y(1,0,1) = 1.00	 
y(0,2,1) = 0.17	 y(2,0,1) = 0.83	 
y(0,3,1) = 0.00	 y(3,0,1) = 1.00	 
y(1,2,1) = 0.22	 y(2,1,1) = 0.78	 
y(1,3,1) = 0.40	 y(3,1,1) = 0.60	 
y(2,3,1) = 0.00	 y(3,2,1) = 1.00	 
y(0,1,2) = 0.59	 y(1,0,2) = 0.41	 
y(0,2,2) = 0.04	 y(2,0,2) = 0.96	 
y(0,3,2) = 0.90	 y(3,0,2) = 0.10	 
y(1,2,2) = 0.37	 y(2,1,2) = 0.63	 
y(1,3,2) = 0.57	 y(3,1,2) = 0.43	 
y(2,3,2) = 0.48	 y(3,2,2) = 0.52	 
y(0,1,3) = 0.23	 y(1,0,3) = 0.77	 
y(0,2,3) = 0.04	 y(2,0,3) = 0.96	 
y(0,3,3) = 0.39	 y(3,0,3) = 0.61	 
y(1,2,3) = 0.14	 y(2,1,3) = 0.86	 
y(1,3,3) = 0.02	 y(3,1,3) = 0.98	 
y(2,3,3) = 0.48	 y(3,2,3) = 0.52	 
16.83278807404451 14.898980743878885 3
24.374384675830022 21.52969003226438 10
15.832788074044512 10.315860979251827 7
10.315860979251827 5.898980743878887 9
obj:  1.1331415806454936
erro
[(3, 2), (0, 0), (2, 1), (1, 1), (2, 2), (1, 0), (0, 2)]
cliques:  0 mip: 73
C:  34.99999231820539
x(0,0) = 6.30	 x(0,1) = 28.00	 x(0,2) = 17.30	 x(0,3) = 16.30	 
x(1,0) = 5.30	 x(1,1) = 14.45	 x(1,2) = 19.45	 x(1,3) = 7.45	 
x(2,0) = 27.25	 x(2,1) = 19.30	 x(2,2) = 16.30	 x(2,3) = 7.30	 
x(3,0) = 14.25	 x(3,1) = 4.25	 x(3,2) = 23.85	 x(3,3) = 11.25	 
y(0,1,0) = 0.00	 y(1,0,0) = 1.00	 
y(0,2,0) = 0.63	 y(2,0,0) = 0.37	 
y(0,3,0) = 0.84	 y(3,0,0) = 0.16	 
y(1,2,0) = 0.77	 y(2,1,0) = 0.23	 
y(1,3,0) = 0.65	 y(3,1,0) = 0.35	 
y(2,3,0) = 0.00	 y(3,2,0) = 1.00	 
y(0,1,1) = 0.00	 y(1,0,1) = 1.00	 
y(0,2,1) = 0.09	 y(2,0,1) = 0.91	 
y(0,3,1) = 0.00	 y(3,0,1) = 1.00	 
y(1,2,1) = 0.34	 y(2,1,1) = 0.66	 
y(1,3,1) = 0.00	 y(3,1,1) = 1.00	 
y(2,3,1) = 0.00	 y(3,2,1) = 1.00	 
y(0,1,2) = 0.47	 y(1,0,2) = 0.53	 
y(0,2,2) = 0.08	 y(2,0,2) = 0.92	 
y(0,3,2) = 0.94	 y(3,0,2) = 0.06	 
y(1,2,2) = 0.51	 y(2,1,2) = 0.49	 
y(1,3,2) = 0.86	 y(3,1,2) = 0.14	 
y(2,3,2) = 0.50	 y(3,2,2) = 0.50	 
y(0,1,3) = 0.08	 y(1,0,3) = 0.92	 
y(0,2,3) = 0.00	 y(2,0,3) = 1.00	 
y(0,3,3) = 0.10	 y(3,0,3) = 0.90	 
y(1,2,3) = 0.28	 y(2,1,3) = 0.72	 
y(1,3,3) = 0.28	 y(3,1,3) = 0.72	 
y(2,3,3) = 0.60	 y(3,2,3) = 0.40	 
17.30120275546938 16.301202755469376 3
7.452843615266338 7.301202755469379 9
obj:  1.1978904126329926
erro
[(1, 2), (0, 0), (3, 0), (2, 1), (1, 1), (2, 2), (0, 2)]
cliques:  0 mip: 0
iterações: 16 cortes cliques encontrados: 6 mip: 1014 objective:  34.99999231820539
Coin0506I Presolve 157 (-171) rows, 90 (-71) columns and 490 (-260) elements
Clp1000I sum of infeasibilities 1.79124e-08 - average 1.14092e-10, 0 fixed columns
Coin0506I Presolve 157 (0) rows, 90 (0) columns and 490 (0) elements
Clp0029I End of values pass after 90 iterations
Clp0000I Optimal - objective value 29
Clp0000I Optimal - objective value 29
Coin0511I After Postsolve, objective 29, infeasibilities - dual 0 (0), primal 0 (0)
Clp0000I Optimal - objective value 29
Clp0000I Optimal - objective value 29
Clp0000I Optimal - objective value 29
Coin0511I After Postsolve, objective 29, infeasibilities - dual 0 (0), primal 0 (0)
Clp0032I Optimal objective 29 - 0 iterations time 0.012, Presolve 0.00, Idiot 0.01
Coin3009W Conflict graph built in 0.000 seconds, density: 0.095%
